letting n_nurses=25
letting n_days=7
letting n_shift_types=4
letting max_covers=7
letting t_covers=61
letting covers=[1,3,5,0,2,2,5,0,4,2,4,0,7,4,2,0,5,2,3,0,2,1,1,0,3,2,1,0]
letting prefes=[3,4,1,1,1,1,1,3,1,1,1,3,1,1,1,3,3,4,1,1,3,4,1,1,3,4,1,1,3,4,4,1,1,1,1,4,1,2,1,4,1,1,1,4,3,4,4,1,3,4,4,1,3,4,4,1,1,2,4,1,1,1,4,3,1,1,1,3,1,1,4,3,1,2,4,1,1,2,4,1,1,2,4,1,1,4,4,1,1,1,4,4,3,1,1,4,1,1,4,4,1,4,4,1,1,4,4,1,1,4,4,1,3,4,4,1,1,3,4,4,1,1,1,4,1,3,4,4,3,4,4,1,3,4,4,1,3,4,4,1,3,2,4,2,1,1,4,4,1,1,1,4,1,1,4,4,3,2,4,2,3,2,4,2,3,2,4,2,1,4,1,1,1,1,4,4,1,1,1,4,1,1,4,4,1,4,1,1,1,4,1,1,1,4,1,1,1,4,4,1,1,1,4,3,3,1,1,3,1,1,4,3,1,4,4,1,1,4,4,1,1,4,4,1,1,4,4,1,3,3,1,4,1,1,1,4,3,3,1,4,1,4,4,1,1,4,4,1,1,4,4,1,1,4,1,1,3,1,4,4,3,1,1,4,3,1,4,4,1,4,1,1,1,4,1,1,1,4,1,1,1,4,1,2,1,3,4,4,1,2,2,4,1,3,4,4,1,4,1,2,1,4,1,2,1,4,1,2,1,4,4,1,1,1,4,3,1,2,1,3,1,1,4,3,1,4,4,1,1,4,4,1,1,4,4,1,1,4,4,1,1,1,4,4,1,1,1,4,1,1,4,4,1,4,4,1,1,4,4,1,1,4,4,1,1,4,4,1,1,1,4,4,3,1,1,4,1,1,4,4,1,4,4,1,1,4,4,1,1,4,4,1,3,2,4,1,1,3,4,4,1,1,1,4,1,3,4,4,3,2,4,1,3,2,4,1,3,2,4,1,1,2,4,1,3,1,4,4,1,2,1,4,3,1,4,4,1,2,4,1,1,2,4,1,1,2,4,1,1,2,4,1,1,1,4,4,1,1,1,4,1,1,4,4,1,2,4,1,1,2,4,1,1,2,4,1,1,4,4,1,1,1,1,4,1,1,2,4,1,1,1,4,1,4,4,1,1,4,4,1,1,4,4,1,1,4,1,1,1,3,4,4,1,1,2,4,1,3,4,4,1,4,1,1,1,4,1,1,1,4,1,1,1,4,4,1,3,1,4,4,1,1,2,4,3,1,4,4,1,4,4,1,1,4,4,1,1,4,4,1,1,4,4,1,3,1,1,4,1,1,1,4,3,1,1,4,1,4,4,1,1,4,4,1,1,4,4,1,1,4,4,2,1,1,4,4,1,2,1,4,1,1,4,4,1,4,4,2,1,4,4,2,1,4,4,2,1,4,4,2,1,1,4,4,1,1,1,4,1,1,4,4,1,4,4,2,1,4,4,2,1,4,4,2,1,4,4,2,1,1,4,3,1,1,1,3,1,1,4,3,1,4,4,2,1,4,4,2,1,4,4,2,1,4,4,1,1,1,4,4,3,1,2,4,1,1,4,4,1,4,4,1,1,4,4,1,1,4,4,1]
letting ub =  201
